15588
1 0 1 1 0 1 0 0 1 1 0 1 0 1 1 1 0 1 0 0 1 0 0 0 1 0 0 0 1 0 
13 11 13 2 13 5 17 9 17 17 9 13 20 20 3 14 14 17 5 11 17 11 9 3 9 20 17 24 5 9 5 11 13 11 20 20 24 15 11 14 17 14 15 3 24 14 3 13 11 14 9 14 14 5 13 20 17 3 11 14 0 5 20 11 11 11 9 0 9 9 13 13 11 17 24 8 9 20 17 9 20 17 13 17 17 17 17 11 20 5 2 24 17 11 17 9 2 3 5 13 13 17 17 11 2 5 11 11 14 28 14 3 2 11 11 9 24 24 24 24 5 13 5 13 13 3 5 9 11 5 0 5 24 9 14 14 3 5 20 17 0 20 20 14 8 5 11 5 2 5 